NAME : OCPPP0725-kernel10.gtsp.2215.tour
COMMENT : Length = 2215
COMMENT : Found by GLKH [Keld Helsgaun] Thu Aug  4 14:06:31 2022
TYPE : TOUR
DIMENSION : 10
TOUR_SECTION
2
20
3
14
9
17
5
15
8
11
-1
EOF
